1 100
0 40.0 50.0 0.0 0.0 0 1236
2 45.0 68.0 90.0 10.0 850 1030
3 45.0 70.0 90.0 30.0 758 938
4 42.0 66.0 90.0 10.0 16 196
5 42.0 68.0 90.0 10.0 665 845
6 42.0 65.0 90.0 10.0 15 195
7 40.0 69.0 90.0 20.0 572 752
8 40.0 66.0 90.0 20.0 108 288
9 38.0 68.0 90.0 20.0 200 380
10 38.0 70.0 90.0 10.0 480 660
11 35.0 66.0 90.0 10.0 294 474
12 35.0 69.0 90.0 10.0 387 567
13 25.0 85.0 90.0 20.0 597 777
14 22.0 75.0 90.0 30.0 30 210
15 22.0 85.0 90.0 10.0 504 684
16 20.0 80.0 90.0 40.0 317 497
17 20.0 85.0 90.0 40.0 412 592
18 18.0 75.0 90.0 20.0 34 214
19 15.0 75.0 90.0 20.0 127 307
20 15.0 80.0 90.0 10.0 222 402
21 30.0 50.0 90.0 10.0 10 190
22 30.0 52.0 90.0 20.0 850 1030
23 28.0 52.0 90.0 20.0 758 938
24 28.0 55.0 90.0 10.0 665 845
25 25.0 50.0 90.0 10.0 15 195
26 25.0 52.0 90.0 40.0 107 287
27 25.0 55.0 90.0 10.0 572 752
28 23.0 52.0 90.0 10.0 199 379
29 23.0 55.0 90.0 20.0 480 660
30 20.0 50.0 90.0 10.0 292 472
31 20.0 55.0 90.0 10.0 387 567
32 10.0 35.0 90.0 20.0 129 309
33 10.0 40.0 90.0 30.0 31 211
34 8.0 40.0 90.0 40.0 33 213
35 8.0 45.0 90.0 20.0 694 874
36 5.0 35.0 90.0 10.0 224 404
37 5.0 45.0 90.0 10.0 601 781
38 2.0 40.0 90.0 20.0 319 499
39 0.0 40.0 90.0 30.0 411 591
40 0.0 45.0 90.0 20.0 506 686
41 35.0 30.0 90.0 10.0 203 383
42 35.0 32.0 90.0 10.0 111 291
43 33.0 32.0 90.0 20.0 19 199
44 33.0 35.0 90.0 10.0 16 196
45 32.0 30.0 90.0 10.0 296 476
46 30.0 30.0 90.0 10.0 481 661
47 30.0 32.0 90.0 30.0 389 569
48 30.0 35.0 90.0 10.0 947 1127
49 28.0 30.0 90.0 10.0 573 753
50 28.0 35.0 90.0 10.0 944 1124
51 26.0 32.0 90.0 10.0 758 938
52 25.0 30.0 90.0 10.0 666 846
53 25.0 35.0 90.0 10.0 851 1031
54 44.0 5.0 90.0 20.0 227 407
55 42.0 10.0 90.0 40.0 132 312
56 42.0 15.0 90.0 10.0 37 217
57 40.0 5.0 90.0 30.0 321 501
58 40.0 15.0 90.0 40.0 35 215
59 38.0 5.0 90.0 30.0 413 593
60 38.0 15.0 90.0 10.0 606 786
61 35.0 5.0 90.0 20.0 506 686
62 50.0 30.0 90.0 10.0 481 661
63 50.0 35.0 90.0 20.0 200 380
64 50.0 40.0 90.0 50.0 105 285
65 48.0 30.0 90.0 10.0 573 753
66 48.0 40.0 90.0 10.0 13 193
67 47.0 35.0 90.0 10.0 761 941
68 47.0 40.0 90.0 10.0 12 192
69 45.0 30.0 90.0 10.0 666 846
70 45.0 35.0 90.0 10.0 853 1033
71 95.0 30.0 90.0 30.0 332 512
72 95.0 35.0 90.0 20.0 237 417
73 53.0 30.0 90.0 10.0 388 568
74 92.0 30.0 90.0 10.0 425 605
75 53.0 35.0 90.0 50.0 293 473
76 45.0 65.0 90.0 20.0 943 1123
77 90.0 35.0 90.0 10.0 142 322
78 88.0 30.0 90.0 10.0 519 699
79 88.0 35.0 90.0 20.0 50 230
80 87.0 30.0 90.0 10.0 610 790
81 85.0 25.0 90.0 10.0 705 885
82 85.0 35.0 90.0 30.0 47 227
83 75.0 55.0 90.0 20.0 305 485
84 72.0 55.0 90.0 10.0 212 392
85 70.0 58.0 90.0 20.0 401 581
86 68.0 60.0 90.0 30.0 494 674
87 66.0 55.0 90.0 10.0 116 296
88 65.0 55.0 90.0 20.0 25 205
89 65.0 60.0 90.0 30.0 587 767
90 63.0 58.0 90.0 10.0 680 860
91 60.0 55.0 90.0 10.0 20 200
92 60.0 60.0 90.0 10.0 773 953
93 67.0 85.0 90.0 20.0 315 495
94 65.0 85.0 90.0 40.0 407 587
95 65.0 82.0 90.0 10.0 221 401
96 62.0 80.0 90.0 30.0 128 308
97 60.0 80.0 90.0 10.0 36 216
98 60.0 85.0 90.0 30.0 502 682
99 58.0 75.0 90.0 20.0 30 210
100 55.0 80.0 90.0 10.0 692 872
101 55.0 85.0 90.0 20.0 597 777